benchmarks/bfuzz0/25275254115370283881811854192111022094.smt2
(set-logic QF_FP)
(declare-const x0 (_ FloatingPoint 11 53))
(declare-const x1 (_ FloatingPoint 11 53))
(declare-const x2 (_ FloatingPoint 11 53))
(declare-const x3 (_ FloatingPoint 11 53))
(declare-const x4 (_ FloatingPoint 11 53))
(declare-const x5 (_ FloatingPoint 11 53))
(declare-const x6 (_ FloatingPoint 11 53))
(declare-const x7 (_ FloatingPoint 11 53))
(declare-const x8 (_ FloatingPoint 11 53))
(declare-const x9 (_ FloatingPoint 11 53))
(declare-const x10 (_ FloatingPoint 11 53))
(declare-const x11 (_ FloatingPoint 11 53))
(declare-const x12 (_ FloatingPoint 11 53))
(declare-const x13 (_ FloatingPoint 11 53))
(declare-const x14 (_ FloatingPoint 11 53))
(declare-const x15 (_ FloatingPoint 11 53))
(declare-const x16 (_ FloatingPoint 11 53))
(declare-const x17 (_ FloatingPoint 11 53))
(declare-const x18 (_ FloatingPoint 11 53))
(declare-const x19 (_ FloatingPoint 11 53))
(declare-const x20 (_ FloatingPoint 11 53))
(assert (fp.geq (fp.add RNE x7 x13) (fp.div RNE x2 x16)))
(assert (fp.leq (fp.div RNE x0 x12) (fp.neg x10)))
(assert (fp.lt (fp.add RNE x4 x11) (fp.div RNE x18 x7)))
(assert (fp.gt (fp.sub RNE x19 x11) (fp.sub RNE x17 x11)))
(assert (fp.lt (fp.div RNE x6 x12) (fp.mul RNE x20 x6)))
(assert (fp.eq (fp.mul RNE x12 x13) (fp.mul RNE x12 x15)))
(assert (fp.gt (fp.add RNE x7 x6) (fp.neg x12)))
(assert (fp.gt (fp.div RNE x16 x12) (fp.add RNE x18 x13)))
(assert (fp.gt (fp.div RNE x12 x15) (fp.mul RNE x11 x9)))
(assert (fp.leq (fp.neg x5) (fp.sub RNE x19 x5)))
(assert (fp.gt (fp.mul RNE x0 x8) (fp.neg x7)))
(assert (fp.gt (fp.neg x20) (fp.mul RNE x14 x20)))
(assert (fp.eq (fp.add RNE x2 x11) (fp.add RNE x13 x18)))
(assert (fp.leq (fp.sub RNE x6 x20) (fp.add RNE x1 x16)))
(assert (fp.geq (fp.sub RNE x17 x15) (fp.add RNE x2 x8)))
(assert (fp.geq (fp.add RNE x20 x6) (fp.mul RNE x19 x18)))
(assert (fp.leq (fp.sub RNE x11 x2) (fp.mul RNE x18 x3)))
(check-sat)
