db/data/25275254115370283881811854192111022094.z3.out
-------------------
2500.216330904
